webassembly/ejemplos_dzn/9/folder9_json_45.dzn
TERM = { '.', 's(5)', 's(2)', 's(4)', 'in_1', 'local_0', 'in_6', 'in_2', 'in_4', 'in_3', 's(1)', 'in_7', 'in_5', 's(3)', 'in_0'};
null = '.';
s = 9;
n = 13;
ndeps = 6;
max_registers_sz = 4;
NR = 1;
registers = [|'local_0', 's(1)'|];
dependencies = [|'i32.store_1', 'i32.load16_u_4', |'i32.store_1', 'i32.load_6', |'i32.store_1', 'i32.load8_s_7', |'i32.load16_u_4', 'call[function_index(0)]_8', |'i32.load_6', 'call[function_index(0)]_8', |'i32.load8_s_7', 'call[function_index(0)]_8'|];
GET_ENUM = { GET1, GET2, GET3, GET4, GET5};
SET_ENUM = { SET1, SET2, SET3, SET4, SET5};
TEE_ENUM = { TEE1, TEE2, TEE3, TEE4, TEE5};
N = 5;
OP = { 'call[function_index(0)]_8', 'i32.store_1', 'i32.load16_u_4', 'i32.load_6', 'i32.load8_s_7' };
in_ops = [3, 2, 1, 1, 1 ];
out_ops = [2, 0, 1, 1, 1 ];
in1 = ['s(3)', 'in_1', 'in_5', 's(1)', 's(2)' ];
in2 = ['in_6', 'in_2', '.', '.', '.' ];
in3 = ['in_7', '.', '.', '.', '.' ];
out1 = ['s(5)', '.', 's(1)', 's(2)', 's(3)' ];
out2 = ['s(4)', '.', '.', '.', '.' ];
out3 = ['.', '.', '.', '.', '.' ];
comm = [false, false, false, false, false ];
gas = [1, 1, 1, 1, 1 ];
sz = [1, 1, 1, 1, 1 ];
stor = [true, true, false, false, false ];
lb = [ 1, 1, 1, 1, 1 ];
ub = [ 9, 9, 9, 9, 9 ];
startstack = [ 'in_0', 'in_1', 'in_2', 'in_3', 'in_4', 'in_5', 'in_6', 'in_7', null, null, null, null, null ];
endstack = [ 's(5)', 's(4)', null, null, null, null, null, null, null, null, null, null, null ];
